(set-logic QF_S)
(declare-fun var0 () String)
(declare-fun var1 () Int)
(declare-fun var2 () String)
(declare-fun var3 () Int)
(declare-fun var4 () Int)
(declare-fun var5 () String)
(declare-fun var6 () String)
(declare-fun var7 () Int)
(assert (>= (str.indexof (str.at var0 var1) (str.substr var2 var3 var4) (str.indexof var5 var6 var7)) (str.len var5)))
(assert (str.contains var0 var6))
(assert (str.contains (str.substr var0 var4 var1) (str.replace var2 var5 var6)))
(assert (str.in.re (str.at (str.at var0 var1) (str.len var2)) (re.* (re.+ re.allchar))))
(check-sat)